RT is False
Default write of storage_offers_DA.csv just to have a file (but constraint should be inactive)
Reading model...
...model read.
creating competitive generators file...
...competitive generators recorded.
Loading data...
.. day-ahead data with real-time VRE data read.
Compiling instance...
...instance created.
Creating Offer Mitigation (model will solve as dispatch if TRUE)...
Solving...

Welcome to IBM(R) ILOG(R) CPLEX(R) Interactive Optimizer 12.9.0.0
  with Simplex, Mixed Integer & Barrier Optimizers
5725-A06 5725-A29 5724-Y48 5724-Y49 5724-Y54 5724-Y55 5655-Y21
Copyright IBM Corp. 1988, 2019.  All Rights Reserved.

Type 'help' for a list of available commands.
Type 'help' followed by a command name for more
information on commands.

CPLEX> Logfile 'cplex.log' closed.
Logfile 'C:\Users\llavin\Desktop\test919\logs\tmpbnvnec01.cplex.log' open.
CPLEX> New value for parallel optimization mode: -1
CPLEX> New value for mixed integer optimality gap tolerance: 0.01
CPLEX> New value for integrality tolerance: 1e-09
CPLEX> New value for feasibility tolerance: 0.01
CPLEX> New value for deterministic time limit in ticks: 75000
CPLEX> Problem 'C:\Users\llavin\Desktop\test919\logs\tmpyapk5_4j.pyomo.lp' read.
Read time = 0.06 sec. (3.04 ticks)
CPLEX> Problem name         : C:\Users\llavin\Desktop\test919\logs\tmpyapk5_4j.pyomo.lp
Objective sense      : Minimize
Variables            :   26081  [Nneg: 1,  Box: 21616,  Free: 4464]
Objective nonzeros   :    2496
Linear constraints   :   27515  [Less: 14006,  Greater: 4416,  Equal: 9093]
  Nonzeros           :   89267
  RHS nonzeros       :   12271

Variables            : Min LB: -5000.000        Max UB: 1000000.       
Objective nonzeros   : Min   : 15.73158         Max   : 124.0997       
Linear constraints   :
  Nonzeros           : Min   : 0.8500000        Max   : 3000.000       
  RHS nonzeros       : Min   : 0.4000000        Max   : 5000.000       
CPLEX> CPXPARAM_Parallel                                -1
CPXPARAM_Simplex_Tolerances_Feasibility          0.01
CPXPARAM_DetTimeLimit                            75000
CPXPARAM_MIP_Tolerances_MIPGap                   0.01
CPXPARAM_MIP_Tolerances_Integrality              1.0000000000000001e-09
Parallel mode: opportunistic, using up to 32 threads for concurrent optimization.
Tried aggregator 1 time.
LP Presolve eliminated 21353 rows and 15463 columns.
Aggregator did 770 substitutions.
Reduced LP has 5392 rows, 9848 columns, and 31812 nonzeros.
Presolve time = 0.06 sec. (30.44 ticks)
Symmetry aggregator did 5563 additional substitutions.

Iteration log . . .
Iteration:     1   Dual objective     =             0.000000
Perturbation started.
Iteration:   101   Dual objective     =             0.000000
Iteration:   331   Dual objective     =             1.128310
Iteration:   582   Dual objective     =             1.659323
Iteration:   841   Dual objective     =             1.799258
Iteration:  1043   Dual objective     =             1.910305
Iteration:  1308   Dual objective     =             1.955332
Iteration:  1563   Dual objective     =             1.987459
Iteration:  1780   Dual objective     =         21501.756341
Iteration:  1980   Dual objective     =         49943.940621
Iteration:  2153   Dual objective     =        131594.026419
Iteration:  2342   Dual objective     =        156966.221989
Iteration:  2594   Dual objective     =        159720.050625
Iteration:  2968   Dual objective     =        168569.286212
Removing perturbation.
Dual superbasis not built.
Using devex.

Primal simplex solved model.


Primal simplex - Optimal:  Objective =  1.6937602393e+05
Solution time =    0.19 sec.  Iterations = 1719 (1012)
Deterministic time = 83.13 ticks  (442.17 ticks/sec)

CPLEX> Solution written to file 'C:\Users\llavin\Desktop\test919\logs\tmppqy7aftg.cplex.sol'.
CPLEX> Exporting results... 
...storage offer mitigation file created
Converting model to MPEC...
...converted
NOTE: initial MIP solve with only storage competitive to get feasible solution
Solving...

Welcome to IBM(R) ILOG(R) CPLEX(R) Interactive Optimizer 12.9.0.0
  with Simplex, Mixed Integer & Barrier Optimizers
5725-A06 5725-A29 5724-Y48 5724-Y49 5724-Y54 5724-Y55 5655-Y21
Copyright IBM Corp. 1988, 2019.  All Rights Reserved.

Type 'help' for a list of available commands.
Type 'help' followed by a command name for more
information on commands.

CPLEX> Logfile 'cplex.log' closed.
Logfile 'C:\Users\llavin\Desktop\test919\logs\tmp0eq5z5b7.cplex.log' open.
CPLEX> New value for parallel optimization mode: -1
CPLEX> New value for mixed integer optimality gap tolerance: 0.01
CPLEX> New value for integrality tolerance: 1e-09
CPLEX> New value for feasibility tolerance: 0.01
CPLEX> New value for deterministic time limit in ticks: 75000
CPLEX> Problem 'C:\Users\llavin\Desktop\test919\logs\tmpw9xiwbiy.pyomo.lp' read.
Read time = 0.23 sec. (14.78 ticks)
CPLEX> Problem name         : C:\Users\llavin\Desktop\test919\logs\tmpw9xiwbiy.pyomo.lp
Objective sense      : Maximize
Variables            :   53805  [Nneg: 1,  Box: 22000,  Free: 4464,
                                 Binary: 27340]
Objective nonzeros   :    8980
Linear constraints   :  123205  [Less: 41346,  Greater: 59096,  Equal: 22763]
  Nonzeros           :  291801
  RHS nonzeros       :   67464

Variables            : Min LB: -5000.000        Max UB: 1000000.       
Objective nonzeros   : Min   : 0.4000000        Max   : 722.0000       
Linear constraints   :
  Nonzeros           : Min   : 0.4000000        Max   : 1000000.       
  RHS nonzeros       : Min   : 0.4000000        Max   : 1000000.       
CPLEX> CPXPARAM_Parallel                                -1
CPXPARAM_Simplex_Tolerances_Feasibility          0.01
CPXPARAM_DetTimeLimit                            75000
CPXPARAM_MIP_Tolerances_MIPGap                   0.01
CPXPARAM_MIP_Tolerances_Integrality              1.0000000000000001e-09
Tried aggregator 3 times.
MIP Presolve eliminated 88656 rows and 18956 columns.
MIP Presolve added 3362 rows and 0 columns.
MIP Presolve modified 24899 coefficients.
Aggregator did 12963 substitutions.
Reduced MIP has 24948 rows, 21330 columns, and 71186 nonzeros.
Reduced MIP has 8406 binaries, 0 generals, 0 SOSs, and 0 indicators.
Presolve time = 0.31 sec. (176.21 ticks)
Probing fixed 379 vars, tightened 2791 bounds.
Probing time = 1.16 sec. (856.39 ticks)
Tried aggregator 2 times.
MIP Presolve eliminated 851 rows and 759 columns.
MIP Presolve modified 2192 coefficients.
Aggregator did 43 substitutions.
Reduced MIP has 24054 rows, 20528 columns, and 68591 nonzeros.
Reduced MIP has 8027 binaries, 0 generals, 0 SOSs, and 0 indicators.
Presolve time = 0.11 sec. (69.16 ticks)
Probing time = 0.03 sec. (15.89 ticks)
Clique table members: 6306.
MIP emphasis: balance optimality and feasibility.
MIP search method: dynamic search.
Parallel mode: opportunistic, using up to 32 threads.
Root relaxation solution time = 0.45 sec. (331.08 ticks)

        Nodes                                         Cuts/
   Node  Left     Objective  IInf  Best Integer    Best Bound    ItCnt     Gap

      0     0     5722.5175  1887                   5722.5175     7724         
      0     0     5721.9062   725                   Cuts: 564     8002         
      0     0     5720.3434   577                   Cuts: 311     8151         
      0     0     5718.6357   535                   Cuts: 143     8212         
      0     0     5718.6357   513                    Cuts: 69     8239         
      0     0     5718.6357   501                    Cuts: 56     8255         
      0     0     5718.6357   497                    Cuts: 42     8260         
      0    10    infeasible                          Cuts: 17     8556         
Elapsed time = 10.92 sec. (6633.79 ticks, tree = 0.02 MB, solutions = 0)
    573   215     4732.6272    18                   5667.5006    12059         
*   892+  347                         5404.6466     5667.5006             4.86%
*   996   628      integral     0     5664.1011     5667.5006    15952    0.06%
   1312   299     5584.3841    13     5664.1011     5667.5006    19576    0.06%

Clique cuts applied:  21
Cover cuts applied:  3
Implied bound cuts applied:  24
Flow cuts applied:  211
Mixed integer rounding cuts applied:  14
Gomory fractional cuts applied:  79

Root node processing (before b&c):
  Real time             =    9.67 sec. (6629.72 ticks)
Parallel b&c, 32 threads:
  Real time             =    4.16 sec. (686.28 ticks)
  Sync time (average)   =    0.68 sec.
  Wait time (average)   =    0.00 sec.
                          ------------
Total (root+branch&cut) =   13.83 sec. (7316.01 ticks)

Solution pool: 13 solutions saved.

MIP - Integer optimal, tolerance (0.01/1e-06):  Objective =  5.6641011157e+03
Current MIP best bound =  5.6675006433e+03 (gap = 3.39953, 0.06%)
Solution time =   13.86 sec.  Iterations = 23675  Nodes = 1349 (14)
Deterministic time = 7316.16 ticks  (527.90 ticks/sec)

CPLEX> Incumbent solution written to file 'C:\Users\llavin\Desktop\test919\logs\tmphj6k0_yr.cplex.sol'.
CPLEX> NOTE: no warmstart specified for MIP iteration, default behavior is true
NOTE: resolving with all competitive generators using storage-only solution to warmstart
Solving...

Welcome to IBM(R) ILOG(R) CPLEX(R) Interactive Optimizer 12.9.0.0
  with Simplex, Mixed Integer & Barrier Optimizers
5725-A06 5725-A29 5724-Y48 5724-Y49 5724-Y54 5724-Y55 5655-Y21
Copyright IBM Corp. 1988, 2019.  All Rights Reserved.

Type 'help' for a list of available commands.
Type 'help' followed by a command name for more
information on commands.

CPLEX> Logfile 'cplex.log' closed.
Logfile 'C:\Users\llavin\Desktop\test919\logs\tmpifg3rf9q.cplex.log' open.
CPLEX> New value for parallel optimization mode: -1
CPLEX> New value for mixed integer optimality gap tolerance: 0.01
CPLEX> New value for integrality tolerance: 1e-09
CPLEX> New value for feasibility tolerance: 0.01
CPLEX> New value for deterministic time limit in ticks: 75000
CPLEX> Problem 'C:\Users\llavin\Desktop\test919\logs\tmpx5_jwy4x.pyomo.lp' read.
Read time = 0.23 sec. (14.81 ticks)
CPLEX> MIP start file 'C:\Users\llavin\Desktop\test919\logs\tmpgdq70apq.cplex.mst' read.
CPLEX> Problem name         : C:\Users\llavin\Desktop\test919\logs\tmpx5_jwy4x.pyomo.lp
Objective sense      : Maximize
Variables            :   54525  [Nneg: 1,  Box: 22720,  Free: 4464,
                                 Binary: 27340]
Objective nonzeros   :    9676
Linear constraints   :  123205  [Less: 41346,  Greater: 59096,  Equal: 22763]
  Nonzeros           :  291801
  RHS nonzeros       :   67464

Variables            : Min LB: -5000.000        Max UB: 1000000.       
Objective nonzeros   : Min   : 0.4000000        Max   : 722.0000       
Linear constraints   :
  Nonzeros           : Min   : 0.4000000        Max   : 1000000.       
  RHS nonzeros       : Min   : 0.4000000        Max   : 1000000.       
CPLEX> CPXPARAM_Parallel                                -1
CPXPARAM_Simplex_Tolerances_Feasibility          0.01
CPXPARAM_DetTimeLimit                            75000
CPXPARAM_MIP_Tolerances_MIPGap                   0.01
CPXPARAM_MIP_Tolerances_Integrality              1.0000000000000001e-09
Warning:  No solution found from 1 MIP starts.
Retaining values of one MIP start for possible repair.
Tried aggregator 3 times.
MIP Presolve eliminated 88656 rows and 19676 columns.
MIP Presolve added 3362 rows and 0 columns.
MIP Presolve modified 24899 coefficients.
Aggregator did 12963 substitutions.
Reduced MIP has 24948 rows, 21330 columns, and 71186 nonzeros.
Reduced MIP has 8406 binaries, 0 generals, 0 SOSs, and 0 indicators.
Presolve time = 0.28 sec. (176.58 ticks)
Probing fixed 379 vars, tightened 2791 bounds.
Probing time = 1.17 sec. (856.39 ticks)
Tried aggregator 2 times.
MIP Presolve eliminated 851 rows and 759 columns.
MIP Presolve modified 2192 coefficients.
Aggregator did 43 substitutions.
Reduced MIP has 24054 rows, 20528 columns, and 68591 nonzeros.
Reduced MIP has 8027 binaries, 0 generals, 0 SOSs, and 0 indicators.
Presolve time = 0.11 sec. (69.16 ticks)
Probing time = 0.05 sec. (15.89 ticks)
Clique table members: 6306.
MIP emphasis: balance optimality and feasibility.
MIP search method: dynamic search.
Parallel mode: opportunistic, using up to 32 threads.
Root relaxation solution time = 0.44 sec. (323.12 ticks)

        Nodes                                         Cuts/
   Node  Left     Objective  IInf  Best Integer    Best Bound    ItCnt     Gap

      0     0   135589.3269  2062                 135589.3269     6937         
      0     0   133185.8022   632                   Cuts: 756     7345         
      0     0   132612.8915   550                   Cuts: 402     7491         
      0     0   132491.8155   524                   Cuts: 164     7554         
      0     0   132489.8517   528                    Cuts: 67     7567         
      0     0   132488.1424   526                    Cuts: 78     7573         
Repair heuristic found nothing.
      0     2   132488.1424   526                    Cuts: 16     7573         
Elapsed time = 11.23 sec. (6256.36 ticks, tree = 0.02 MB, solutions = 0)
    440    67   121228.1866   472                 130550.4900     8676         
    897   584   114900.5411   434                 130550.4900    14717         
   1393   858   115911.6193   440                 130550.4900    17964         
   1941  1283   114089.6188   443                 130550.4900    23303         
   2483  2001   107800.2365   463                 130550.4900    31818         
   3091  1970   101005.4048   430                 130550.4900    31356         
   3778  2593    86571.9607   347                 130550.4900    37653         
   4569  2997    85770.6770   351                 130550.4900    40696         
   5310  3555    90150.7457   402                 130550.4900    43495         
   9143  6825    83722.2800   278                 130550.4900    54824         
Elapsed time = 29.31 sec. (9358.08 ticks, tree = 54.83 MB, solutions = 0)
* 12803+ 4991                       100506.7408   130550.4900            29.89%
  15315  5413   113077.0441   413   100506.7408   130513.1075    68618   29.86%
  16303  7146    infeasible         100506.7408   113756.9715    94400   13.18%
  17730   310   106384.9958   185   100506.7408   113756.9715   102210   13.18%
  18792  1258   108275.2974   158   100506.7408   113756.9715   111791   13.18%
  21774  2287   107842.7010   126   100506.7408   113756.9715   120474   13.18%
  24727  4808   100523.7945   116   100506.7408   113756.9715   138872   13.18%
  27295  8354   105185.1381   117   100506.7408   113756.9715   161891   13.18%
  28882  8593   105632.4454   132   100506.7408   113756.9715   163586   13.18%
  29520 10825   107669.8943   134   100506.7408   113756.9715   176104   13.18%
Elapsed time = 81.17 sec. (23599.83 ticks, tree = 99.69 MB, solutions = 3)
  31149 10916   102757.0888   110   100506.7408   113756.9715   176782   13.18%
  34115 11317   101591.5852   107   100506.7408   113756.9715   179272   13.18%
  37077 13148   103826.9192   133   100506.7408   111189.5179   191852   10.63%
  39835 18416   101240.3760   107   101826.0443   111189.5179   223359    9.20%
  42582 16944   108881.0608   167   102335.6718   111115.7268   238107    8.58%
  45660 16768   108026.2834   136   102335.6718   111115.7268   236185    8.58%
  48767 17232   109674.2552   142   102335.6718   110765.6222   252822    8.24%
* 51654 17819      integral     0   103218.1071   110765.6222   257100    7.31%
  52013 19370   105081.7041   163   103218.1071   110765.6222   266899    7.31%
  55026 20406   109448.6763   137   103218.1071   110678.3553   272407    7.23%
  57566 20563   109530.4477   141   103218.1071   110564.9872   300503    7.12%
Elapsed time = 136.25 sec. (33140.40 ticks, tree = 180.00 MB, solutions = 7)
  59917 22465   103942.1384    91   103218.1071   110558.0803   313151    7.11%
* 61082 22542      integral     0   103941.8081   110535.0607   313322    6.34%
  61496 24207   110201.1140   174   103941.8081   110524.8771   341267    6.33%
  61933 24236        cutoff         103941.8081   110524.8771   341995    6.33%
  63438 24257   104168.8504   160   103941.8081   110524.8771   342266    6.33%
  65814 24277   106091.8911   164   103941.8081   110521.0407   342527    6.33%
  68157 26158   106700.0820   156   103941.8081   110456.7443   379657    6.27%
  70365 25748   106617.1496   154   103941.8081   110456.7443   368939    6.27%
  72607 28639   106895.6177   161   103941.8081   110451.9090   433690    6.26%
  75139 28307        cutoff         103941.8081   110451.9090   426852    6.26%
Elapsed time = 198.97 sec. (42495.01 ticks, tree = 254.60 MB, solutions = 8)
  77958 30499   108747.5591   214   103941.8081   110451.9090   486030    6.26%
  80926 30187        cutoff         103941.8081   110451.9090   474073    6.26%
  83926 30426   109483.5353   160   103941.8081   109763.6047   481484    5.60%
  86752 31712        cutoff         103941.8081   109763.6047   597381    5.60%
  89707 31223   105917.6722   182   103941.8081   109763.6047   542144    5.60%
  92698 31610   106738.1957   157   103941.8081   109723.1616   583583    5.56%
  95591 31624        cutoff         103941.8081   109687.4469   584749    5.53%
  98157 31832   106024.3674   124   103941.8081   109653.3108   617018    5.49%
 100453 32018   105556.2817   166   103941.8081   109653.3108   644282    5.49%
 102490 32757   106279.4567   115   103941.8081   109636.2369   780891    5.48%
Elapsed time = 230.98 sec. (52036.74 ticks, tree = 286.95 MB, solutions = 8)
 103286 32559        cutoff         103941.8081   109636.2369   756564    5.48%
 103813 32531   105732.7398   156   103941.8081   109590.8175   754346    5.43%
 105185 32639        cutoff         103941.8081   109361.6866   776977    5.21%
 107319 33375   105647.4247   157   103941.8081   109310.5085   888433    5.17%
 110308 33836    infeasible         103941.8081   109310.5085   928477    5.17%
 113701 34334   107834.0946   198   103941.8081   109214.9114   988880    5.07%
 117138 33234   108538.1450   127   103941.8081   109174.4240   857353    5.03%
 120693 33913   105960.7767   128   103941.8081   109174.4240   940476    5.03%
 124182 33799   107495.7628   208   103941.8081   109128.0917   925053    4.99%
 127692 34497   105002.4669   167   103941.8081   109105.6001  1000216    4.97%
Elapsed time = 286.36 sec. (61583.30 ticks, tree = 302.58 MB, solutions = 8)
 131067 34622   104987.4765   159   103941.8081   109105.6001  1005991    4.97%
 134567 34324   104799.6779   117   103941.8081   109105.6001   988266    4.97%
 138010 35557   103995.0122   101   103941.8081   108633.6812  1051959    4.51%
 141577 35903        cutoff         103941.8081   108633.6812  1072080    4.51%
 145055 42037   104741.2552   126   103941.8081   108633.6812  1221073    4.51%
 148463 41147   105480.6669   114   103941.8081   108397.4338  1203386    4.29%
 151845 42728   105340.7230   107   103941.8081   108397.4338  1239742    4.29%
 155129 46175        cutoff         103941.8081   108397.4338  1327529    4.29%
 158193 43202   104375.3565   138   103941.8081   108374.2640  1257632    4.26%
 161023 46422   105111.4507   106   103941.8081   108374.2640  1332022    4.26%
Elapsed time = 325.00 sec. (71124.34 ticks, tree = 430.33 MB, solutions = 8)
 163568 43412   105226.6019   108   103941.8081   108374.2640  1256239    4.26%
 165656 46568        cutoff         103941.8081   108374.2640  1333026    4.26%
 166855 45605    infeasible         103941.8081   108374.2640  1311588    4.26%
 167536 47403   104527.5827   121   103941.8081   108374.2640  1358058    4.26%

Clique cuts applied:  17
Cover cuts applied:  21
Implied bound cuts applied:  40
Flow cuts applied:  390
Mixed integer rounding cuts applied:  55
Zero-half cuts applied:  1
Gomory fractional cuts applied:  108

Root node processing (before b&c):
  Real time             =    9.22 sec. (6217.57 ticks)
Parallel b&c, 32 threads:
  Real time             =  320.03 sec. (68794.60 ticks)
  Sync time (average)   =    1.39 sec.
  Wait time (average)   =    0.26 sec.
                          ------------
Total (root+branch&cut) =  329.25 sec. (75012.17 ticks)

Solution pool: 8 solutions saved.

MIP - Deterministic time limit exceeded, integer feasible:  Objective =  1.0394180813e+05
Current MIP best bound =  1.0806000843e+05 (gap = 4118.2, 3.96%)
Solution time =  329.27 sec.  Iterations = 1404482  Nodes = 167550 (50063)
Deterministic time = 75012.32 ticks  (227.82 ticks/sec)

CPLEX> Incumbent solution written to file 'C:\Users\llavin\Desktop\test919\logs\tmpb4fvhego.cplex.sol'.
CPLEX> Exporting results... 
